c This is an instance of the heur track of PACE 2020 Challenge, see https://pacechallenge.org/2020/ 
c TYPE: infrastracture 
c ORIGIN: https://gitlab.com/rvb/mwcarp-ob 
c DESCRIPTION: a road network from the Ob generator by René van Bevern, Christian Komusiewicz, and Manuel Sorge (cities that are divided into several components by a river) 
p tdp 255 364
1 5
1 25
5 16
5 6
3 96
3 95
96 97
96 100
95 68
95 94
4 48
4 50
4 66
48 46
48 49
50 49
50 51
16 17
16 20
6 18
6 7
18 17
18 19
7 8
7 19
8 26
19 21
26 21
26 27
9 10
9 29
9 255
10 11
10 30
29 27
29 28
29 31
255 171
255 233
255 150
255 89
11 12
11 33
30 33
30 31
12 13
12 36
13 14
13 37
14 44
14 15
44 37
44 43
44 54
15 45
45 46
20 21
20 22
21 23
22 24
22 23
23 24
23 28
24 25
25 38
38 39
27 28
31 32
33 32
33 36
32 34
34 35
34 41
35 36
35 37
39 40
40 77
41 43
43 42
42 75
42 55
75 74
75 73
75 76
54 53
54 55
46 49
46 47
51 60
51 52
60 59
60 64
52 53
52 59
53 56
53 55
56 57
56 58
57 58
57 61
58 59
61 62
64 65
64 67
62 74
62 63
74 73
63 70
65 66
67 66
67 68
68 69
68 94
69 70
69 71
94 93
94 92
70 71
71 72
71 82
72 73
72 81
76 77
76 78
78 79
80 81
80 84
81 82
82 83
83 91
83 84
91 99
91 92
84 85
84 87
85 86
87 86
87 101
86 88
88 89
101 112
101 102
89 90
99 98
99 112
99 115
92 93
93 97
97 98
100 2
100 131
100 132
98 127
127 126
127 128
112 113
102 111
102 103
111 114
111 103
103 104
104 105
104 114
105 106
105 107
114 113
106 118
106 108
107 108
107 109
118 117
118 119
108 109
109 110
113 115
115 116
116 123
116 117
123 122
123 124
117 121
117 119
121 122
121 155
119 120
120 170
120 162
170 171
170 174
122 124
155 152
155 156
124 125
125 126
125 150
125 152
126 150
128 129
128 139
129 130
129 138
130 131
130 137
131 132
132 133
133 134
133 135
135 136
135 147
136 137
136 146
147 146
147 148
137 138
146 145
138 139
139 140
140 141
140 142
141 150
141 142
142 143
150 151
143 144
143 145
145 148
148 149
151 152
151 153
152 153
153 154
154 157
154 158
157 156
157 161
157 163
158 160
158 159
156 162
162 163
161 159
161 165
161 164
163 168
163 167
160 159
165 164
165 166
164 169
168 167
168 176
166 167
176 175
171 172
172 173
174 183
174 182
174 188
183 179
177 181
177 175
177 180
181 180
181 182
178 185
178 179
185 184
185 253
185 186
179 184
179 180
184 187
187 188
186 197
197 195
197 198
188 189
189 190
189 191
191 192
191 193
192 193
192 242
193 238
194 195
194 244
195 196
196 198
196 199
198 199
199 200
200 201
200 202
201 202
201 206
202 203
206 205
206 213
203 251
203 204
251 252
204 205
204 252
205 207
207 208
207 212
213 214
213 215
208 209
212 210
212 254
209 210
210 211
254 217
254 218
214 216
214 215
215 221
215 246
216 217
216 219
221 222
221 224
218 219
219 220
222 247
222 225
222 223
247 246
247 248
247 250
223 225
223 227
223 229
225 224
227 228
229 231
229 230
229 250
224 226
231 230
231 232
230 235
232 233
232 234
233 234
235 240
235 239
235 236
240 241
240 249
236 237
236 238
239 241
241 243
241 242
243 244
243 245
243 242
244 245
245 248
245 246
248 249
250 249
